48
11
3
5 3
10 2
9 1
10 3
2 3
7 1
4 3
1 3
4 3
11 0
11 0
11 1
2 0
9 1
8 0
2 0
5 0
5 3
1 2
7 2
9 3
3 3
1 3
7 3
2 2
5 0
9 3
5 3
8 3
6 2
7 0
10 3
8 1
10 2
5 1
7 3
9 0
2 2
4 2
8 1
1 3
3 3
1 2
8 2
7 2
4 2
7 3
7 0
